p edge 1000 500
e 1 2
e 3 5
e 4 6
e 7 8
e 9 10
e 11 12
e 13 14
e 15 16
e 17 18
e 19 20
e 21 22
e 23 24
e 25 26
e 27 28
e 29 30
e 31 32
e 33 34
e 35 36
e 37 38
e 39 40
e 41 42
e 43 44
e 45 46
e 47 48
e 49 50
e 51 52
e 53 54
e 55 56
e 57 58
e 59 60
e 61 62
e 63 64
e 65 66
e 67 68
e 69 70
e 71 72
e 73 74
e 75 76
e 77 78
e 79 80
e 81 82
e 83 84
e 85 86
e 87 88
e 89 90
e 91 92
e 93 94
e 95 97
e 96 98
e 99 100
e 101 102
e 103 104
e 105 106
e 107 108
e 109 110
e 111 112
e 113 114
e 115 116
e 117 118
e 119 120
e 121 122
e 123 124
e 125 126
e 127 128
e 129 130
e 131 132
e 133 134
e 135 136
e 137 138
e 139 140
e 141 142
e 143 144
e 145 146
e 147 148
e 149 150
e 151 152
e 153 154
e 155 157
e 156 158
e 159 161
e 160 162
e 163 165
e 164 166
e 167 168
e 169 170
e 171 172
e 173 174
e 175 176
e 177 178
e 179 180
e 181 182
e 183 184
e 185 186
e 187 188
e 189 190
e 191 192
e 193 194
e 195 197
e 196 198
e 199 200
e 201 203
e 202 204
e 205 206
e 207 208
e 209 210
e 211 212
e 213 214
e 215 216
e 217 218
e 219 220
e 221 222
e 223 224
e 225 226
e 227 228
e 229 230
e 231 232
e 233 234
e 235 236
e 237 238
e 239 241
e 240 242
e 243 244
e 245 246
e 247 248
e 249 250
e 251 252
e 253 254
e 255 256
e 257 258
e 259 260
e 261 262
e 263 264
e 265 266
e 267 268
e 269 270
e 271 272
e 273 274
e 275 277
e 276 278
e 279 280
e 281 282
e 283 284
e 285 286
e 287 288
e 289 290
e 291 293
e 292 294
e 295 296
e 297 298
e 299 300
e 301 302
e 303 304
e 305 306
e 307 308
e 309 310
e 311 312
e 313 314
e 315 316
e 317 319
e 318 320
e 321 322
e 323 325
e 324 327
e 326 328
e 329 330
e 331 332
e 333 334
e 335 336
e 337 338
e 339 340
e 341 342
e 343 344
e 345 346
e 347 348
e 349 350
e 351 352
e 353 354
e 355 357
e 356 358
e 359 360
e 361 362
e 363 364
e 365 366
e 367 368
e 369 370
e 371 372
e 373 374
e 375 376
e 377 378
e 379 380
e 381 382
e 383 384
e 385 387
e 386 388
e 389 390
e 391 392
e 393 394
e 395 396
e 397 398
e 399 401
e 400 402
e 403 404
e 405 406
e 407 408
e 409 410
e 411 412
e 413 414
e 415 416
e 417 418
e 419 420
e 421 422
e 423 424
e 425 426
e 427 428
e 429 430
e 431 432
e 433 434
e 435 436
e 437 438
e 439 440
e 441 442
e 443 444
e 445 446
e 447 448
e 449 450
e 451 452
e 453 454
e 455 456
e 457 458
e 459 460
e 461 462
e 463 464
e 465 466
e 467 468
e 469 472
e 470 471
e 473 474
e 475 476
e 477 478
e 479 480
e 481 482
e 483 484
e 485 486
e 487 488
e 489 490
e 491 493
e 492 494
e 495 496
e 497 498
e 499 500
e 501 502
e 503 504
e 505 506
e 507 508
e 509 510
e 511 512
e 513 514
e 515 516
e 517 518
e 519 520
e 521 522
e 523 525
e 524 526
e 527 528
e 529 530
e 531 532
e 533 534
e 535 536
e 537 538
e 539 540
e 541 542
e 543 544
e 545 546
e 547 548
e 549 550
e 551 552
e 553 554
e 555 556
e 557 558
e 559 560
e 561 563
e 562 564
e 565 566
e 567 568
e 569 570
e 571 572
e 573 574
e 575 576
e 577 578
e 579 580
e 581 582
e 583 584
e 585 586
e 587 588
e 589 590
e 591 592
e 593 594
e 595 596
e 597 599
e 598 600
e 601 602
e 603 604
e 605 606
e 607 608
e 609 610
e 611 612
e 613 614
e 615 616
e 617 618
e 619 620
e 621 622
e 623 624
e 625 626
e 627 628
e 629 630
e 631 632
e 633 634
e 635 636
e 637 638
e 639 640
e 641 642
e 643 644
e 645 647
e 646 648
e 649 650
e 651 653
e 652 654
e 655 658
e 656 659
e 657 660
e 661 662
e 663 664
e 665 666
e 667 668
e 669 671
e 670 672
e 673 674
e 675 676
e 677 678
e 679 680
e 681 683
e 682 684
e 685 686
e 687 688
e 689 690
e 691 692
e 693 694
e 695 696
e 697 698
e 699 700
e 701 702
e 703 704
e 705 706
e 707 708
e 709 710
e 711 712
e 713 714
e 715 716
e 717 718
e 719 720
e 721 722
e 723 724
e 725 726
e 727 728
e 729 730
e 731 732
e 733 734
e 735 736
e 737 738
e 739 740
e 741 742
e 743 744
e 745 746
e 747 748
e 749 750
e 751 752
e 753 754
e 755 756
e 757 758
e 759 760
e 761 762
e 763 765
e 764 766
e 767 768
e 769 770
e 771 772
e 773 774
e 775 776
e 777 778
e 779 780
e 781 782
e 783 784
e 785 786
e 787 788
e 789 790
e 791 792
e 793 794
e 795 796
e 797 798
e 799 800
e 801 802
e 803 804
e 805 806
e 807 808
e 809 810
e 811 812
e 813 814
e 815 816
e 817 818
e 819 820
e 821 822
e 823 824
e 825 826
e 827 829
e 828 830
e 831 832
e 833 834
e 835 836
e 837 838
e 839 840
e 841 842
e 843 844
e 845 846
e 847 848
e 849 850
e 851 852
e 853 854
e 855 856
e 857 858
e 859 860
e 861 862
e 863 864
e 865 867
e 866 868
e 869 870
e 871 872
e 873 874
e 875 877
e 876 878
e 879 880
e 881 882
e 883 884
e 885 886
e 887 888
e 889 890
e 891 893
e 892 894
e 895 896
e 897 898
e 899 900
e 901 902
e 903 904
e 905 907
e 906 908
e 909 910
e 911 912
e 913 914
e 915 916
e 917 918
e 919 920
e 921 922
e 923 924
e 925 926
e 927 929
e 928 930
e 931 932
e 933 935
e 934 936
e 937 938
e 939 940
e 941 943
e 942 944
e 945 946
e 947 948
e 949 950
e 951 952
e 953 954
e 955 956
e 957 958
e 959 961
e 960 962
e 963 964
e 965 966
e 967 968
e 969 970
e 971 972
e 973 974
e 975 976
e 977 978
e 979 980
e 981 982
e 983 984
e 985 987
e 986 988
e 989 990
e 991 992
e 993 994
e 995 997
e 996 998
e 999 1000
